************************************************************************
file with basedata            : n/a
initial value random generator: n/a
************************************************************************
projects                      :  1
jobs (incl. supersource/sink ):  122
horizon                       :  642
RESOURCES
  - renewable                 :  4   R
  - nonrenewable              :  0   N
  - doubly constrained        :  0   D
************************************************************************
PROJECT INFORMATION:
pronr.  #jobs rel.date duedate tardcost  MPM-Time
    1    120      0      107       58      107
************************************************************************
PRECEDENCE RELATIONS:
jobnr.    #modes  #successors   successors
   1        1          3           2   3   4
   2        1          3           5   6   8
   3        1          3          13  22 109
   4        1          3          20  49  76
   5        1          2           7  33
   6        1          3           9  26  30
   7        1          3          10  12  18
   8        1          3          11  36  58
   9        1          3          22  86 104
  10        1          3          14  17  25
  11        1          3          19  21 105
  12        1          3          42  59 102
  13        1          2          21  33
  14        1          3          15  16  19
  15        1          3          29  67  83
  16        1          3          50  58  92
  17        1          1          30
  18        1          1          54
  19        1          3          40  63  69
  20        1          2          75  77
  21        1          3          24  34  41
  22        1          3          23  63  91
  23        1          2          27  66
  24        1          3          28  38  56
  25        1          3          27  28  35
  26        1          3          46  57  96
  27        1          2          92 113
  28        1          3          32  43  45
  29        1          3          31  59 103
  30        1          3          47  65  73
  31        1          2          61  84
  32        1          3          37  39  89
  33        1          3          44  51  64
  34        1          3          38  72  79
  35        1          3          37  48  62
  36        1          2          62  95
  37        1          3          75  94  98
  38        1          1          53
  39        1          3          52  78  81
  40        1          2          52  73
  41        1          3          51  95 100
  42        1          2          61  75
  43        1          3          47  53  98
  44        1          3          52  85  92
  45        1          3          63  74  97
  46        1          2          73  84
  47        1          3          48  60  80
  48        1          3          79  85 106
  49        1          3          55  61 108
  50        1          3          66  90  96
  51        1          2         103 107
  52        1          1          91
  53        1          3          60  77  88
  54        1          3          55  57  78
  55        1          3          70  71  96
  56        1          3          59  82 119
  57        1          2          65  80
  58        1          3          64  69  89
  59        1          2          62  68
  60        1          3          76  82 103
  61        1          3          64  66  68
  62        1          1         117
  63        1          2          72  80
  64        1          2          70 100
  65        1          3          68  84 112
  66        1          1          94
  67        1          3          69  71  82
  68        1          2          70 117
  69        1          3          81  90  93
  70        1          2         111 118
  71        1          3          74 105 116
  72        1          1         111
  73        1          3          74  78 102
  74        1          3          77  88  94
  75        1          1         115
  76        1          2          85  86
  77        1          2          91 106
  78        1          1         101
  79        1          2          81  95
  80        1          2          93 107
  81        1          2          86 120
  82        1          3          89  97 112
  83        1          2          87 105
  84        1          3          87  88  98
  85        1          3          93  99 112
  86        1          2          87 119
  87        1          1          97
  88        1          1         117
  89        1          2          90 116
  90        1          1         108
  91        1          1         101
  92        1          1         108
  93        1          1         110
  94        1          1         107
  95        1          1         116
  96        1          2         104 109
  97        1          1          99
  98        1          3          99 100 101
  99        1          2         102 113
 100        1          1         104
 101        1          1         110
 102        1          1         118
 103        1          1         121
 104        1          1         106
 105        1          2         109 115
 106        1          1         119
 107        1          1         114
 108        1          1         110
 109        1          1         114
 110        1          1         111
 111        1          1         115
 112        1          1         113
 113        1          1         114
 114        1          1         118
 115        1          1         120
 116        1          1         120
 117        1          1         121
 118        1          1         121
 119        1          1         122
 120        1          1         122
 121        1          1         122
 122        1          0        
************************************************************************
REQUESTS/DURATIONS:
jobnr. mode duration  R 1  R 2  R 3  R 4
------------------------------------------------------------------------
  1      1     0    
  2      1     2       4   4
                       0   0
                       0   0
                       0   0
  3      1     7       4   4   4   4   4   4   0
                       6   6   6   6   6   6   0
                       0   0   0   0   0   0   0
                       9   9   9   9   9   9   0
  4      1     6       0   0   0   0   0   0
                       0   2   2   0   2   2
                       0   0   0   0   0   0
                       0   8   8   0   8   8
  5      1     9       0   0   0   0   0   0   0   0   0
                       0   8   8   8   8   0   8   8   8
                       0   0   0   0   0   0   0   0   0
                       0   5   5   5   5   0   5   5   5
  6      1     3       0   0   0
                       1   1   1
                       2   2   2
                       0   0   0
  7      1     6       1   1   1   1   1   1
                       3   3   3   3   3   3
                       0   0   0   0   0   0
                       5   5   5   5   5   5
  8      1     5       5   5   5   5   0
                       0   0   0   0   0
                       0   0   0   0   0
                       4   4   4   4   0
  9      1     1       0
                       1
                       0
                       0
 10      1     9       0   0   0   0   0   0   0   0   0
                       0   0   0   0   0   0   0   0   0
                       0   0   0   0   0   0   0   0   0
                       9   9   0   9   9   9   9   9   9
 11      1     8       0   0   0   0   0   0   0   0
                      10  10  10  10  10  10  10  10
                       0   0   0   0   0   0   0   0
                       0   0   0   0   0   0   0   0
 12      1     6       0   0   0   0   0   0
                       0   0   0   0   0   0
                       4   4   4   4   4   4
                       0   0   0   0   0   0
 13      1     2       7   7
                       0   0
                       3   3
                       0   0
 14      1     7       5   5   5   5   5   5   5
                       0   0   0   0   0   0   0
                       2   2   2   2   2   2   2
                       1   1   1   1   1   1   1
 15      1     1       1
                       0
                       5
                       9
 16      1    10       0   0   0   0   0   0   0   0   0   0
                       0   0   0   0   0   0   0   0   0   0
                       5   5   5   0   0   5   5   5   5   5
                       0   0   0   0   0   0   0   0   0   0
 17      1     9       8   8   8   8   8   8   8   8   8
                       0   0   0   0   0   0   0   0   0
                       4   4   4   4   4   4   4   4   4
                       0   0   0   0   0   0   0   0   0
 18      1     7       0   0   0   0   0   0   0
                       4   4   0   4   0   4   4
                       0   0   0   0   0   0   0
                       9   9   0   9   0   9   9
 19      1     4       0   0   0   0
                       0   8   8   8
                       0   4   4   4
                       0  10  10  10
 20      1     4       3   3   3   3
                       0   0   0   0
                       0   0   0   0
                       4   4   4   4
 21      1     8       0   0   0   0   0   0   0   0
                       0   0   0   0   0   0   0   0
                       0   0   0   0   0   0   0   0
                       2   2   2   2   2   2   2   2
 22      1     5       0   0   0   0   0
                       0   0   0   0   0
                       1   1   1   1   1
                       1   1   1   1   1
 23      1     9       1   1   1   1   1   1   1   1   1
                       0   0   0   0   0   0   0   0   0
                       0   0   0   0   0   0   0   0   0
                       1   1   1   1   1   1   1   1   1
 24      1    10      10  10  10  10  10  10  10  10  10   0
                       0   0   0   0   0   0   0   0   0   0
                       0   0   0   0   0   0   0   0   0   0
                       7   7   7   7   7   7   7   7   7   0
 25      1     5       2   2   2   2   2
                      10  10  10  10  10
                       6   6   6   6   6
                       0   0   0   0   0
 26      1     2       8   8
                       0   0
                       0   0
                       1   1
 27      1     1      10
                       0
                       0
                       4
 28      1     2       0   0
                       0   0
                      10  10
                       0   0
 29      1     9       4   4   4   4   4   4   4   4   4
                       0   0   0   0   0   0   0   0   0
                       0   0   0   0   0   0   0   0   0
                       6   6   6   6   6   6   6   6   6
 30      1    10       2   2   0   2   2   2   2   2   2   2
                       0   0   0   0   0   0   0   0   0   0
                       0   0   0   0   0   0   0   0   0   0
                       0   0   0   0   0   0   0   0   0   0
 31      1     6      10  10  10  10  10  10
                       0   0   0   0   0   0
                       7   7   7   7   7   7
                       9   9   9   9   9   9
 32      1     4       0   0   0   0
                       1   1   1   1
                       7   7   7   7
                       0   0   0   0
 33      1     8       0   0   0   0   0   0   0   0
                       8   8   8   8   8   8   8   8
                       0   0   0   0   0   0   0   0
                       6   6   6   6   6   6   6   6
 34      1     3       0   0   0
                       0   0   0
                       9   9   9
                       7   7   7
 35      1     6       0   3   3   3   3   3
                       0   2   2   2   2   2
                       0   1   1   1   1   1
                       0   4   4   4   4   4
 36      1     7       0   0   0   0   0   0   0
                       6   6   0   6   6   6   6
                      10  10   0  10  10  10  10
                       1   1   0   1   1   1   1
 37      1     8       0   0   0   0   0   0   0   0
                       9   9   9   0   9   9   9   9
                       0   0   0   0   0   0   0   0
                       6   6   6   0   6   6   6   6
 38      1     7       1   1   1   1   1   1   0
                       0   0   0   0   0   0   0
                       9   9   9   9   9   9   0
                       0   0   0   0   0   0   0
 39      1     8       7   0   7   7   7   0   7   7
                       4   0   4   4   4   0   4   4
                       3   0   3   3   3   0   3   3
                       0   0   0   0   0   0   0   0
 40      1     3       3   3   3
                       4   4   4
                       7   7   7
                       4   4   4
 41      1     1       0
                       0
                       0
                       0
 42      1     9       2   2   2   2   2   2   2   2   2
                       0   0   0   0   0   0   0   0   0
                       0   0   0   0   0   0   0   0   0
                       0   0   0   0   0   0   0   0   0
 43      1     9       0   0   0   0   0   0   0   0   0
                       0   0   0   0   0   0   0   0   0
                       5   0   5   5   0   0   5   5   5
                       0   0   0   0   0   0   0   0   0
 44      1     9       0   0   0   0   0   0   0   0   0
                       0   0   0   0   0   0   0   0   0
                      10   0  10  10  10  10  10  10  10
                       0   0   0   0   0   0   0   0   0
 45      1     5       0   0   0   0   0
                       6   6   6   6   6
                       8   8   8   8   8
                       9   9   9   9   9
 46      1     5       0   0   0   0   0
                       4   4   4   4   4
                       0   0   0   0   0
                       0   0   0   0   0
 47      1     8       0   0   0   0   0   0   0   0
                       8   8   8   0   8   8   8   8
                       8   8   8   0   8   8   8   8
                       9   9   9   0   9   9   9   9
 48      1     2       7   7
                       8   8
                       0   0
                       1   1
 49      1     4       9   9   9   9
                       9   9   9   9
                       4   4   4   4
                       8   8   8   8
 50      1     2       0   0
                       8   0
                       2   0
                       5   0
 51      1     6       0   0   0   0   0   0
                       0   0   0   0   0   0
                       8   8   8   8   8   8
                       0   0   0   0   0   0
 52      1     1       0
                       0
                       2
                       0
 53      1     3       0   0   0
                      10  10  10
                       0   0   0
                       0   0   0
 54      1     7       0   0   0   0   0   0   0
                       0   0   0   0   0   0   0
                       0   0   0   0   0   0   0
                       2   2   2   2   2   2   2
 55      1     5       0   0   0   0   0
                       0   0   0   0   0
                       0   0   0   0   0
                       2   0   2   2   0
 56      1     9       1   1   0   1   1   1   1   1   1
                       0   0   0   0   0   0   0   0   0
                       0   0   0   0   0   0   0   0   0
                       0   0   0   0   0   0   0   0   0
 57      1     8       0   0   0   0   0   0   0   0
                       5   0   5   5   5   5   5   5
                       1   0   1   1   1   1   1   1
                       0   0   0   0   0   0   0   0
 58      1     1       0
                       0
                       0
                       1
 59      1     1       0
                       0
                       5
                       0
 60      1     2       4   4
                       4   4
                       5   5
                       4   4
 61      1     3       8   8   8
                       0   0   0
                       3   3   3
                       0   0   0
 62      1     6       0   0   0   0   0   0
                       6   6   6   6   6   6
                       4   4   4   4   4   4
                       6   6   6   6   6   6
 63      1     7       0   0   0   0   0   0   0
                       1   1   1   1   1   1   0
                       7   7   7   7   7   7   0
                       0   0   0   0   0   0   0
 64      1     4       8   8   8   8
                      10  10  10  10
                       0   0   0   0
                       0   0   0   0
 65      1     3       0   0   0
                       9   9   9
                       0   0   0
                       0   0   0
 66      1     2       0   0
                       0   0
                       0   0
                       2   2
 67      1     2       0   8
                       0   0
                       0   0
                       0   4
 68      1     9       3   3   3   3   3   3   3   3   0
                       3   3   3   3   3   3   3   3   0
                       0   0   0   0   0   0   0   0   0
                       0   0   0   0   0   0   0   0   0
 69      1     3       3   3   3
                       7   7   7
                       0   0   0
                       0   0   0
 70      1     8       8   8   8   8   8   8   8   8
                       0   0   0   0   0   0   0   0
                       1   1   1   1   1   1   1   1
                       8   8   8   8   8   8   8   8
 71      1     5       0   0   0   0   0
                       0   0   0   0   0
                       6   6   0   0   6
                       5   5   0   0   5
 72      1     6      10   0   0  10  10  10
                       9   0   0   9   9   9
                       0   0   0   0   0   0
                      10   0   0  10  10  10
 73      1     4       9   9   9   9
                      10  10  10  10
                       0   0   0   0
                       7   7   7   7
 74      1     3       9   9   9
                       0   0   0
                      10  10  10
                       0   0   0
 75      1     7       6   6   6   0   6   6   6
                       0   0   0   0   0   0   0
                       4   4   4   0   4   4   4
                       0   0   0   0   0   0   0
 76      1     3       0   0   0
                       0   0   0
                       0   0   0
                       7   0   7
 77      1    10       6   6   6   6   6   6   6   6   6   6
                       0   0   0   0   0   0   0   0   0   0
                       0   0   0   0   0   0   0   0   0   0
                       2   2   2   2   2   2   2   2   2   2
 78      1     5       4   4   0   4   4
                       6   6   0   6   6
                       8   8   0   8   8
                       0   0   0   0   0
 79      1     9       5   5   5   5   5   5   5   5   5
                       5   5   5   5   5   5   5   5   5
                       0   0   0   0   0   0   0   0   0
                       0   0   0   0   0   0   0   0   0
 80      1     2       5   5
                       0   0
                       9   9
                       0   0
 81      1     4       0   0   0   0
                       3   3   3   3
                       4   4   4   4
                       0   0   0   0
 82      1     7       0   0   0   0   0   0   0
                       5   5   5   5   5   5   5
                       9   9   9   9   9   9   9
                       3   3   3   3   3   3   3
 83      1     4       0   0   0   0
                       7   7   7   7
                      10  10  10  10
                       0   0   0   0
 84      1     2       0   0
                       0   6
                       0   3
                       0   0
 85      1     1       0
                       3
                       0
                       4
 86      1     3       0   0   0
                       0   0   0
                       0   0   0
                       6   6   6
 87      1     8       8   0   8   8   8   8   0   8
                       0   0   0   0   0   0   0   0
                       0   0   0   0   0   0   0   0
                       0   0   0   0   0   0   0   0
 88      1     5       0   0   0   0   0
                       0   0   0   0   0
                       9   9   9   9   9
                      10  10  10  10  10
 89      1     3       0   0   0
                       0   0   0
                       6   6   6
                       7   7   7
 90      1     9       0   0   0   0   0   0   0   0   0
                       9   0   0   9   9   0   9   9   9
                       8   0   0   8   8   0   8   8   8
                       3   0   0   3   3   0   3   3   3
 91      1    10       0   0   0   0   0   0   0   0   0   0
                       0   0   0   0   0   0   0   0   0   0
                       7   7   7   0   7   7   7   7   7   7
                       0   0   0   0   0   0   0   0   0   0
 92      1     2       0   0
                       5   5
                       0   0
                       0   0
 93      1     5       0   0   0   0   0
                       8   8   8   8   8
                       1   1   1   1   1
                       7   7   7   7   7
 94      1    10       4   4   0   4   4   4   0   4   0   4
                       0   0   0   0   0   0   0   0   0   0
                       3   3   0   3   3   3   0   3   0   3
                       0   0   0   0   0   0   0   0   0   0
 95      1     3       0   0   0
                       0   0   0
                       0   0   0
                       3   3   3
 96      1     8       0   0   0   0   0   0   0   0
                       0   0   0   0   0   0   0   0
                       0   0   0   0   0   0   0   0
                       0   0  10  10  10  10  10   0
 97      1     4       0   0   0   0
                       0   0   0   0
                       0   0   0   0
                       2   2   2   2
 98      1     9       5   5   5   5   5   5   5   5   5
                       0   0   0   0   0   0   0   0   0
                       0   0   0   0   0   0   0   0   0
                       0   0   0   0   0   0   0   0   0
 99      1     2       8   8
                       7   7
                       0   0
                       0   0
100      1     2       0   0
                       6   6
                       0   0
                      10  10
101      1     1       0
                       0
                       0
                       0
102      1     5       0   0   0   0   0
                       0   0   0   0   0
                      10   0  10  10  10
                       8   0   8   8   8
103      1     4       4   4   4   4
                       2   2   2   2
                       8   8   8   8
                       0   0   0   0
104      1     1       0
                       2
                       0
                       0
105      1     5       8   8   8   8   8
                       0   0   0   0   0
                       6   6   6   6   6
                       0   0   0   0   0
106      1    10       6   6   6   0   6   6   6   6   6   6
                       9   9   9   0   9   9   9   9   9   9
                       0   0   0   0   0   0   0   0   0   0
                       2   2   2   0   2   2   2   2   2   2
107      1     8       8   8   8   8   8   8   8   8
                       0   0   0   0   0   0   0   0
                       2   2   2   2   2   2   2   2
                       7   7   7   7   7   7   7   7
108      1     9       0   0   0   0   0   0   0   0   0
                       0   0   0   0   0   0   0   0   0
                       3   3   0   3   3   3   3   3   3
                       0   0   0   0   0   0   0   0   0
109      1     4       7   7   7   7
                       0   0   0   0
                      10  10  10  10
                       0   0   0   0
110      1     6       4   4   4   4   4   4
                       0   0   0   0   0   0
                      10  10  10  10  10  10
                       0   0   0   0   0   0
111      1     5       2   2   2   2   2
                       0   0   0   0   0
                       0   0   0   0   0
                       9   9   9   9   9
112      1     8      10  10  10  10  10  10  10  10
                      10  10  10  10  10  10  10  10
                       9   9   9   9   9   9   9   9
                       1   1   1   1   1   1   1   1
113      1     3      10  10   0
                       0   0   0
                       0   0   0
                       3   3   0
114      1     2       0   0
                       0   0
                       0   0
                       0   0
115      1     8       1   1   1   1   1   1   0   1
                       7   7   7   7   7   7   0   7
                       0   0   0   0   0   0   0   0
                       3   3   3   3   3   3   0   3
116      1    10       6   6   6   6   6   6   0   6   6   6
                       0   0   0   0   0   0   0   0   0   0
                      10  10  10  10  10  10   0  10  10  10
                       5   5   5   5   5   5   0   5   5   5
117      1     4       9   9   9   0
                       9   9   9   0
                       0   0   0   0
                       0   0   0   0
118      1     7       0   0   0   0   0   0   0
                       3   3   3   3   0   3   3
                       0   0   0   0   0   0   0
                       8   8   8   8   0   8   8
119      1     4       0   0   0   0
                       9   9   9   9
                       0   0   0   0
                       9   9   9   9
120      1     2       5   5
                       0   0
                       9   9
                       9   9
121      1    10       0   0   0   0   0   0   0   0   0   0
                       9   9   0   0   9   9   9   9   9   9
                       0   0   0   0   0   0   0   0   0   0
                      10  10   0   0  10  10  10  10  10  10
122      1     0    
************************************************************************
RESOURCEAVAILABILITIES:
  R 1  R 2  R 3  R 4

  19  19  19  19  19  19  19  19  19  19  19  19  19  19  19   0   0   0  19  19  19  19  19  19  19  19  19  19  19  19  19  19   0  19   0  19  19  19  19  19  19  19   0  19  19   0  19  19  19  19  19  19  19  19  19  19   0  19  19  19  19  19  19   0  19  19  19  19  19  19  19  19  19  19  19  19  19  19  19  19  19  19   0  19  19  19  19  19  19  19   0  19  19  19  19  19  19  19  19  19  19  19  19  19   0  19  19  19  19  19  19  19  19  19  19  19  19  19   0  19  19  19  19  19  19  19  19  19   0  19  19  19  19  19  19  19  19  19  19  19  19  19  19  19  19  19   0  19  19  19   0  19  19  19  19   0  19  19  19  19  19  19  19  19  19  19   0  19   0  19  19  19  19  19  19  19  19  19  19  19   0   0  19  19  19  19  19  19  19  19   0  19  19  19  19  19  19  19  19   0  19  19  19  19   0  19  19   0  19  19  19  19  19   0  19  19  19  19  19  19  19   0  19  19  19  19  19  19   0  19  19  19   0  19  19  19   0  19  19  19  19  19  19  19  19  19  19  19  19  19  19  19   0  19   0  19  19  19  19  19  19  19  19   0  19  19   0  19  19  19  19  19  19  19  19  19  19  19   0  19  19  19  19  19  19  19  19  19  19   0  19  19  19   0  19  19  19  19  19  19  19  19   0  19  19  19  19  19  19  19  19   0  19  19  19  19  19  19  19  19  19  19  19  19   0  19   0  19  19  19  19  19  19  19  19  19  19  19  19  19  19  19  19  19  19  19   0  19  19  19  19   0  19  19  19  19   0  19  19   0  19  19  19  19  19  19  19  19  19  19  19  19  19  19  19  19  19  19   0  19  19  19  19  19  19   0  19  19  19  19  19   0  19  19  19  19  19  19  19  19  19  19  19  19   0  19  19  19  19  19  19   0  19  19  19  19  19  19  19   0  19  19  19   0  19  19  19  19  19  19  19  19  19  19  19  19  19  19  19  19  19   0  19  19  19  19  19   0  19  19  19  19  19   0  19  19  19  19  19  19  19  19  19  19  19  19   0  19  19  19  19  19  19   0  19  19   0  19  19  19  19  19  19   0  19  19  19   0  19  19  19  19   0  19  19  19  19  19  19  19  19  19  19  19  19  19  19  19  19  19  19  19  19  19  19  19  19   0  19  19  19   0  19  19  19  19  19  19   0  19  19  19  19  19  19  19  19  19  19  19  19  19  19  19  19  19  19  19  19  19  19  19  19  19  19   0  19  19  19  19  19  19  19  19  19  19  19  19  19  19  19  19   0  19  19  19  19  19  19  19  19  19   0  19  19  19  19  19  19   0  19  19  19  19  19  19  19  19  19  19  19  19  19  19  19  19  19  19  19  19  19  19  19  19  19  19   0  19   0  19  19  19  19  19  19   0  19  19  19  19  19  19  19  19  19  19  19  19  19   0  19  19

  21  21  21  21  21  21  21  21  21  21  21  21  21  21  21   0   0   0  21  21  21  21  21  21  21  21  21  21  21  21  21  21   0  21   0  21  21  21  21  21  21  21   0  21  21   0  21  21  21  21  21  21  21  21  21  21   0  21  21  21  21  21  21   0  21  21  21  21  21  21  21  21  21  21  21  21  21  21  21  21  21  21   0  21  21  21  21  21  21  21   0  21  21  21  21  21  21  21  21  21  21  21  21  21   0  21  21  21  21  21  21  21  21  21  21  21  21  21   0  21  21  21  21  21  21  21  21  21   0  21  21  21  21  21  21  21  21  21  21  21  21  21  21  21  21  21   0  21  21  21   0  21  21  21  21   0  21  21  21  21  21  21  21  21  21  21   0  21   0  21  21  21  21  21  21  21  21  21  21  21   0   0  21  21  21  21  21  21  21  21   0  21  21  21  21  21  21  21  21   0  21  21  21  21   0  21  21   0  21  21  21  21  21   0  21  21  21  21  21  21  21   0  21  21  21  21  21  21   0  21  21  21   0  21  21  21   0  21  21  21  21  21  21  21  21  21  21  21  21  21  21  21   0  21   0  21  21  21  21  21  21  21  21   0  21  21   0  21  21  21  21  21  21  21  21  21  21  21   0  21  21  21  21  21  21  21  21  21  21   0  21  21  21   0  21  21  21  21  21  21  21  21   0  21  21  21  21  21  21  21  21   0  21  21  21  21  21  21  21  21  21  21  21  21   0  21   0  21  21  21  21  21  21  21  21  21  21  21  21  21  21  21  21  21  21  21   0  21  21  21  21   0  21  21  21  21   0  21  21   0  21  21  21  21  21  21  21  21  21  21  21  21  21  21  21  21  21  21   0  21  21  21  21  21  21   0  21  21  21  21  21   0  21  21  21  21  21  21  21  21  21  21  21  21   0  21  21  21  21  21  21   0  21  21  21  21  21  21  21   0  21  21  21   0  21  21  21  21  21  21  21  21  21  21  21  21  21  21  21  21  21   0  21  21  21  21  21   0  21  21  21  21  21   0  21  21  21  21  21  21  21  21  21  21  21  21   0  21  21  21  21  21  21   0  21  21   0  21  21  21  21  21  21   0  21  21  21   0  21  21  21  21   0  21  21  21  21  21  21  21  21  21  21  21  21  21  21  21  21  21  21  21  21  21  21  21  21   0  21  21  21   0  21  21  21  21  21  21   0  21  21  21  21  21  21  21  21  21  21  21  21  21  21  21  21  21  21  21  21  21  21  21  21  21  21   0  21  21  21  21  21  21  21  21  21  21  21  21  21  21  21  21   0  21  21  21  21  21  21  21  21  21   0  21  21  21  21  21  21   0  21  21  21  21  21  21  21  21  21  21  21  21  21  21  21  21  21  21  21  21  21  21  21  21  21  21   0  21   0  21  21  21  21  21  21   0  21  21  21  21  21  21  21  21  21  21  21  21  21   0  21  21

  20  20  20  20  20  20  20  20  20  20  20  20  20  20  20   0   0   0  20  20  20  20  20  20  20  20  20  20  20  20  20  20   0  20   0  20  20  20  20  20  20  20   0  20  20   0  20  20  20  20  20  20  20  20  20  20   0  20  20  20  20  20  20   0  20  20  20  20  20  20  20  20  20  20  20  20  20  20  20  20  20  20   0  20  20  20  20  20  20  20   0  20  20  20  20  20  20  20  20  20  20  20  20  20   0  20  20  20  20  20  20  20  20  20  20  20  20  20   0  20  20  20  20  20  20  20  20  20   0  20  20  20  20  20  20  20  20  20  20  20  20  20  20  20  20  20   0  20  20  20   0  20  20  20  20   0  20  20  20  20  20  20  20  20  20  20   0  20   0  20  20  20  20  20  20  20  20  20  20  20   0   0  20  20  20  20  20  20  20  20   0  20  20  20  20  20  20  20  20   0  20  20  20  20   0  20  20   0  20  20  20  20  20   0  20  20  20  20  20  20  20   0  20  20  20  20  20  20   0  20  20  20   0  20  20  20   0  20  20  20  20  20  20  20  20  20  20  20  20  20  20  20   0  20   0  20  20  20  20  20  20  20  20   0  20  20   0  20  20  20  20  20  20  20  20  20  20  20   0  20  20  20  20  20  20  20  20  20  20   0  20  20  20   0  20  20  20  20  20  20  20  20   0  20  20  20  20  20  20  20  20   0  20  20  20  20  20  20  20  20  20  20  20  20   0  20   0  20  20  20  20  20  20  20  20  20  20  20  20  20  20  20  20  20  20  20   0  20  20  20  20   0  20  20  20  20   0  20  20   0  20  20  20  20  20  20  20  20  20  20  20  20  20  20  20  20  20  20   0  20  20  20  20  20  20   0  20  20  20  20  20   0  20  20  20  20  20  20  20  20  20  20  20  20   0  20  20  20  20  20  20   0  20  20  20  20  20  20  20   0  20  20  20   0  20  20  20  20  20  20  20  20  20  20  20  20  20  20  20  20  20   0  20  20  20  20  20   0  20  20  20  20  20   0  20  20  20  20  20  20  20  20  20  20  20  20   0  20  20  20  20  20  20   0  20  20   0  20  20  20  20  20  20   0  20  20  20   0  20  20  20  20   0  20  20  20  20  20  20  20  20  20  20  20  20  20  20  20  20  20  20  20  20  20  20  20  20   0  20  20  20   0  20  20  20  20  20  20   0  20  20  20  20  20  20  20  20  20  20  20  20  20  20  20  20  20  20  20  20  20  20  20  20  20  20   0  20  20  20  20  20  20  20  20  20  20  20  20  20  20  20  20   0  20  20  20  20  20  20  20  20  20   0  20  20  20  20  20  20   0  20  20  20  20  20  20  20  20  20  20  20  20  20  20  20  20  20  20  20  20  20  20  20  20  20  20   0  20   0  20  20  20  20  20  20   0  20  20  20  20  20  20  20  20  20  20  20  20  20   0  20  20

  18  18  18  18  18  18  18  18  18  18  18  18  18  18  18   0   0   0  18  18  18  18  18  18  18  18  18  18  18  18  18  18   0  18   0  18  18  18  18  18  18  18   0  18  18   0  18  18  18  18  18  18  18  18  18  18   0  18  18  18  18  18  18   0  18  18  18  18  18  18  18  18  18  18  18  18  18  18  18  18  18  18   0  18  18  18  18  18  18  18   0  18  18  18  18  18  18  18  18  18  18  18  18  18   0  18  18  18  18  18  18  18  18  18  18  18  18  18   0  18  18  18  18  18  18  18  18  18   0  18  18  18  18  18  18  18  18  18  18  18  18  18  18  18  18  18   0  18  18  18   0  18  18  18  18   0  18  18  18  18  18  18  18  18  18  18   0  18   0  18  18  18  18  18  18  18  18  18  18  18   0   0  18  18  18  18  18  18  18  18   0  18  18  18  18  18  18  18  18   0  18  18  18  18   0  18  18   0  18  18  18  18  18   0  18  18  18  18  18  18  18   0  18  18  18  18  18  18   0  18  18  18   0  18  18  18   0  18  18  18  18  18  18  18  18  18  18  18  18  18  18  18   0  18   0  18  18  18  18  18  18  18  18   0  18  18   0  18  18  18  18  18  18  18  18  18  18  18   0  18  18  18  18  18  18  18  18  18  18   0  18  18  18   0  18  18  18  18  18  18  18  18   0  18  18  18  18  18  18  18  18   0  18  18  18  18  18  18  18  18  18  18  18  18   0  18   0  18  18  18  18  18  18  18  18  18  18  18  18  18  18  18  18  18  18  18   0  18  18  18  18   0  18  18  18  18   0  18  18   0  18  18  18  18  18  18  18  18  18  18  18  18  18  18  18  18  18  18   0  18  18  18  18  18  18   0  18  18  18  18  18   0  18  18  18  18  18  18  18  18  18  18  18  18   0  18  18  18  18  18  18   0  18  18  18  18  18  18  18   0  18  18  18   0  18  18  18  18  18  18  18  18  18  18  18  18  18  18  18  18  18   0  18  18  18  18  18   0  18  18  18  18  18   0  18  18  18  18  18  18  18  18  18  18  18  18   0  18  18  18  18  18  18   0  18  18   0  18  18  18  18  18  18   0  18  18  18   0  18  18  18  18   0  18  18  18  18  18  18  18  18  18  18  18  18  18  18  18  18  18  18  18  18  18  18  18  18   0  18  18  18   0  18  18  18  18  18  18   0  18  18  18  18  18  18  18  18  18  18  18  18  18  18  18  18  18  18  18  18  18  18  18  18  18  18   0  18  18  18  18  18  18  18  18  18  18  18  18  18  18  18  18   0  18  18  18  18  18  18  18  18  18   0  18  18  18  18  18  18   0  18  18  18  18  18  18  18  18  18  18  18  18  18  18  18  18  18  18  18  18  18  18  18  18  18  18   0  18   0  18  18  18  18  18  18   0  18  18  18  18  18  18  18  18  18  18  18  18  18   0  18  18

************************************************************************
